************************************************************************
file with basedata            : md329_.bas
initial value random generator: 1079121237
************************************************************************
projects                      :  1
jobs (incl. supersource/sink ):  22
horizon                       :  157
RESOURCES
  - renewable                 :  2   R
  - nonrenewable              :  2   N
  - doubly constrained        :  0   D
************************************************************************
PROJECT INFORMATION:
pronr.  #jobs rel.date duedate tardcost  MPM-Time
    1     20      0       17       19       17
************************************************************************
PRECEDENCE RELATIONS:
jobnr.    #modes  #successors   successors
   1        1          3           2   3   4
   2        3          2           8  15
   3        3          3           6   8  10
   4        3          3           5  12  14
   5        3          3           7  10  11
   6        3          2           9  16
   7        3          1          18
   8        3          2          12  16
   9        3          2          13  14
  10        3          2          18  20
  11        3          1          13
  12        3          1          19
  13        3          2          15  17
  14        3          2          15  17
  15        3          3          19  20  21
  16        3          2          18  21
  17        3          2          20  21
  18        3          1          19
  19        3          1          22
  20        3          1          22
  21        3          1          22
  22        1          0        
************************************************************************
REQUESTS/DURATIONS:
jobnr. mode duration  R 1  R 2  N 1  N 2
------------------------------------------------------------------------
  1      1     0       0    0    0    0
  2      1     1       8    0    8    0
         2     1       7    0    0    6
         3     8       0    7    8    0
  3      1     3      10    0    0    5
         2     7       0    9    0    4
         3    10       6    0    0    4
  4      1     3       9    0    7    0
         2     6       0    8    4    0
         3     9       5    0    2    0
  5      1     1       3    0   10    0
         2     2       2    0    7    0
         3    10       0    2    3    0
  6      1     2       0    7    0    9
         2     3      10    0    0    8
         3     6       9    0    4    0
  7      1     5       9    0    0    8
         2     6       7    0    0    7
         3     7       5    0    0    7
  8      1     2       4    0    6    0
         2     5       0    7    6    0
         3     8       2    0    1    0
  9      1     2       0   10    6    0
         2     3       0    9    6    0
         3    10       0    7    3    0
 10      1     3       0    6    0    5
         2     3       2    0    5    0
         3     9       0    7    0    4
 11      1     4       0    7    0    9
         2     6       0    6    0    6
         3    10       0    5    8    0
 12      1     7       0    5    0    7
         2    10       0    4    0    7
         3    10       2    0    0    7
 13      1     3       3    0    0    3
         2     6       0    1    0    3
         3    10       0    1    0    2
 14      1     1       8    0    0    5
         2     2       8    0    8    0
         3     4       0    2    0    4
 15      1     1       6    0    4    0
         2     1       0    1    3    0
         3     3       8    0    0    9
 16      1     2       0    5    6    0
         2     4       6    0    0    7
         3     4       6    0    4    0
 17      1     3       7    0    0    9
         2     8       0    5    3    0
         3     9       7    0    0    8
 18      1     1       0    8    4    0
         2     4       9    0    4    0
         3    10       9    0    0    6
 19      1     2       6    0    9    0
         2     5       4    0    0    8
         3     8       0    5    0    8
 20      1     1       0    6    0    6
         2     2       0    5    4    0
         3     3       0    4    0    5
 21      1     3       8    0    0    2
         2     9       0    6    0    2
         3     9       0    7    7    0
 22      1     0       0    0    0    0
************************************************************************
RESOURCEAVAILABILITIES:
  R 1  R 2  N 1  N 2
   11   11   54   62
************************************************************************
MAXIMAL LAGS:
from  to  type  delay
    1   12   ES      0
    1    2   ES      0
    2   12   ES      0
    1    3   ES      0
    3   12   ES      0
    1    4   ES      0
    4   12   ES      0
    1    5   ES      0
    5   12   ES      0
    1    6   ES      0
    6   12   ES      0
    1    7   ES      0
    7   12   ES      0
    1    8   ES      0
    8   12   ES      0
    1    9   ES      0
    9   12   ES      0
    1   10   ES      0
   10   12   ES      0
    1   11   ES      0
   11   12   ES      0
    1   12   ES      0
    2    8   SS     -5
    2    8   SE     -5
    2    8   ES     -5
    2    8   EE    -12
    2   15   SS    -12
    2   15   SE     -6
    2   15   ES     -7
    2   15   EE     -2
    3    6   SS      0
    3    6   SE      6
    3    6   ES      1
    3    6   EE     -4
    3    8   SS      2
    3    8   SE     12
    3    8   ES     -4
    3    8   EE    -10
    3   10   SS     -6
    3   10   SE     -5
    3   10   ES    -10
    3   10   EE     -9
    4    5   SS     -1
    4    5   SE    -10
    4    5   ES      7
    4    5   EE      1
    4   14   SS      4
    4   14   SE     -5
    4   14   ES      7
    4   14   EE     -3
    5    7   SS      5
    5    7   SE     12
    5    7   ES     10
    5    7   EE     -3
    5   10   SS     -7
    5   10   SE     -8
    5   10   ES      1
    5   10   EE      8
    5   11   SS      1
    5   11   SE     -6
    5   11   ES    -10
    5   11   EE     -1
    6    9   SS     -3
    6    9   SE     -6
    6    9   ES    -12
    6    9   EE      6
    6   16   SS      7
    6   16   SE    -12
    6   16   ES     -6
    6   16   EE      8
    7   18   SS      8
    7   18   SE     -3
    7   18   ES     10
    7   18   EE      6
    8   16   SS     -9
    8   16   SE     -5
    8   16   ES    -10
    8   16   EE     -1
    9   13   SS      0
    9   13   SE      8
    9   13   ES     -2
    9   13   EE     -6
    9   14   SS     10
    9   14   SE      0
    9   14   ES      1
    9   14   EE      3
   10   18   SS    -10
   10   18   SE     -6
   18   10   SE      0
   10   18   ES      0
   10   18   EE     -3
   10   20   SS      1
   10   20   SE     10
   10   20   ES     -6
   10   20   EE     -2
   11   13   SS    -10
   11   13   SE     11
   11   13   ES     -3
   11   13   EE     -2
   12   19   SS     -7
   12   19   SE     -7
   12   19   ES      4
   12   19   EE     12
   13   15   SS      8
   13   15   SE     -8
   13   15   ES     -6
   13   15   EE     -8
   13   17   SS     -2
   13   17   SE      9
   13   17   ES     -6
   13   17   EE     -3
   14   15   SS      4
   14   15   SE      9
   14   15   ES     -2
   14   15   EE     11
   14   17   SS     -7
   14   17   SE     10
   14   17   ES      7
   14   17   EE      2
   15   19   SS     12
   15   19   SE      7
   15   19   ES      6
   15   19   EE     -6
   15   20   SS     10
   15   20   SE     -4
   15   20   ES      7
   15   20   EE      1
   15   21   SS     -1
   15   21   SE      2
   15   21   ES      2
   15   21   EE     -2
   16   18   SS      5
   16   18   SE     -5
   16   18   ES      8
   16   18   EE     -5
   16   21   SS     -1
   16   21   SE     -7
   16   21   ES     -9
   16   21   EE      9
   17   20   SS      7
   17   20   SE      3
   17   20   ES    -12
   17   20   EE      9
   17   21   SS      0
   17   21   SE     -3
   17   21   ES    -12
   17   21   EE      1
   18   19   SS     -3
   18   19   SE    -10
   18   19   ES     -8
   18   19   EE     -6
   19   22   SS     10
   19   22   SE     11
   19   22   ES      8
   19   22   EE    -10
   20   22   SS     -2
   20   22   SE     -4
   20   22   ES    -11
   20   22   EE     -8
   21   22   SS     -3
   21   22   SE     -4
   21   22   ES      2
   21   22   EE      4
************************************************************************
